c strEdges: 189  randomEdges: 441 
c degrees:  2  3 
c girth: 10 max: 8.032766  
c Hgirth mixed MAXCUT instance
c generated from an undirected graph
c to solve unweighted MaxCut
p cnf 140 1260
94 68 0
-94 -68 0
94 80 0
-94 -80 0
94 22 0
-94 -22 0
38 137 0
-38 -137 0
38 17 0
-38 -17 0
38 96 0
-38 -96 0
11 122 0
-11 -122 0
11 77 0
-11 -77 0
66 128 0
-66 -128 0
66 133 0
-66 -133 0
66 136 0
-66 -136 0
105 78 0
-105 -78 0
105 29 0
-105 -29 0
105 17 0
-105 -17 0
56 49 0
-56 -49 0
56 125 0
-56 -125 0
56 18 0
-56 -18 0
107 63 0
-107 -63 0
107 13 0
-107 -13 0
107 71 0
-107 -71 0
99 30 0
-99 -30 0
99 85 0
-99 -85 0
99 115 0
-99 -115 0
108 133 0
-108 -133 0
108 61 0
-108 -61 0
108 81 0
-108 -81 0
112 85 0
-112 -85 0
112 63 0
-112 -63 0
112 41 0
-112 -41 0
139 140 0
-139 -140 0
139 122 0
-139 -122 0
139 52 0
-139 -52 0
113 17 0
-113 -17 0
113 41 0
-113 -41 0
113 140 0
-113 -140 0
60 91 0
-60 -91 0
60 13 0
-60 -13 0
28 2 0
-28 -2 0
28 90 0
-28 -90 0
27 115 0
-27 -115 0
27 42 0
-27 -42 0
27 67 0
-27 -67 0
59 58 0
-59 -58 0
59 7 0
-59 -7 0
88 64 0
-88 -64 0
88 91 0
-88 -91 0
117 33 0
-117 -33 0
117 5 0
-117 -5 0
117 50 0
-117 -50 0
69 53 0
-69 -53 0
69 136 0
-69 -136 0
15 19 0
-15 -19 0
15 4 0
-15 -4 0
15 2 0
-15 -2 0
138 45 0
-138 -45 0
138 14 0
-138 -14 0
138 10 0
-138 -10 0
34 86 0
-34 -86 0
34 122 0
-34 -122 0
93 8 0
-93 -8 0
93 135 0
-93 -135 0
93 71 0
-93 -71 0
70 14 0
-70 -14 0
70 90 0
-70 -90 0
70 29 0
-70 -29 0
87 65 0
-87 -65 0
87 100 0
-87 -100 0
87 45 0
-87 -45 0
116 83 0
-116 -83 0
116 95 0
-116 -95 0
116 84 0
-116 -84 0
123 22 0
-123 -22 0
123 30 0
-123 -30 0
43 136 0
-43 -136 0
43 58 0
-43 -58 0
43 64 0
-43 -64 0
62 4 0
-62 -4 0
62 63 0
-62 -63 0
62 84 0
-62 -84 0
102 18 0
-102 -18 0
102 77 0
-102 -77 0
6 37 0
-6 -37 0
6 3 0
-6 -3 0
6 30 0
-6 -30 0
130 10 0
-130 -10 0
130 103 0
-130 -103 0
36 61 0
-36 -61 0
36 80 0
-36 -80 0
73 9 0
-73 -9 0
73 33 0
-73 -33 0
73 92 0
-73 -92 0
101 84 0
-101 -84 0
101 96 0
-101 -96 0
114 42 0
-114 -42 0
114 78 0
-114 -78 0
114 75 0
-114 -75 0
40 90 0
-40 -90 0
40 53 0
-40 -53 0
40 1 0
-40 -1 0
109 3 0
-109 -3 0
109 124 0
-109 -124 0
109 32 0
-109 -32 0
31 131 0
-31 -131 0
31 45 0
-31 -45 0
31 22 0
-31 -22 0
55 50 0
-55 -50 0
55 115 0
-55 -115 0
16 125 0
-16 -125 0
16 2 0
-16 -2 0
16 67 0
-16 -67 0
47 52 0
-47 -52 0
47 9 0
-47 -9 0
12 110 0
-12 -110 0
12 8 0
-12 -8 0
12 89 0
-12 -89 0
48 89 0
-48 -89 0
48 83 0
-48 -83 0
48 120 0
-48 -120 0
79 13 0
-79 -13 0
79 1 0
-79 -1 0
79 32 0
-79 -32 0
23 100 0
-23 -100 0
23 76 0
-23 -76 0
23 95 0
-23 -95 0
54 1 0
-54 -1 0
54 68 0
-54 -68 0
54 86 0
-54 -86 0
72 75 0
-72 -75 0
72 58 0
-72 -58 0
72 4 0
-72 -4 0
111 120 0
-111 -120 0
111 103 0
-111 -103 0
111 140 0
-111 -140 0
132 96 0
-132 -96 0
132 5 0
-132 -5 0
132 124 0
-132 -124 0
35 103 0
-35 -103 0
35 64 0
-35 -64 0
35 68 0
-35 -68 0
39 97 0
-39 -97 0
39 89 0
-39 -89 0
39 131 0
-39 -131 0
46 32 0
-46 -32 0
46 120 0
-46 -120 0
74 95 0
-74 -95 0
74 61 0
-74 -61 0
74 127 0
-74 -127 0
126 7 0
-126 -7 0
126 131 0
-126 -131 0
126 137 0
-126 -137 0
104 80 0
-104 -80 0
104 21 0
-104 -21 0
98 76 0
-98 -76 0
98 50 0
-98 -50 0
98 91 0
-98 -91 0
57 124 0
-57 -124 0
57 128 0
-57 -128 0
118 134 0
-118 -134 0
118 75 0
-118 -75 0
118 86 0
-118 -86 0
121 5 0
-121 -5 0
121 21 0
-121 -21 0
26 77 0
-26 -77 0
26 85 0
-26 -85 0
106 81 0
-106 -81 0
106 97 0
-106 -97 0
106 134 0
-106 -134 0
129 135 0
-129 -135 0
129 128 0
-129 -128 0
129 18 0
-129 -18 0
25 21 0
-25 -21 0
25 125 0
-25 -125 0
51 29 0
-51 -29 0
51 110 0
-51 -110 0
51 37 0
-51 -37 0
44 92 0
-44 -92 0
44 19 0
-44 -19 0
44 81 0
-44 -81 0
119 67 0
-119 -67 0
119 127 0
-119 -127 0
119 52 0
-119 -52 0
20 41 0
-20 -41 0
20 49 0
-20 -49 0
20 76 0
-20 -76 0
82 71 0
-82 -71 0
82 65 0
-82 -65 0
82 9 0
-82 -9 0
24 127 0
-24 -127 0
24 7 0
-24 -7 0
4 41 0
-4 -41 0
129 22 0
-129 -22 0
102 137 0
-102 -137 0
26 7 0
-26 -7 0
57 67 0
-57 -67 0
53 9 0
-53 -9 0
25 32 0
-25 -32 0
39 75 0
-39 -75 0
30 97 0
-30 -97 0
27 23 0
-27 -23 0
93 133 0
-93 -133 0
58 92 0
-58 -92 0
31 65 0
-31 -65 0
133 65 0
-133 -65 0
40 79 0
-40 -79 0
82 42 0
-82 -42 0
36 44 0
-36 -44 0
73 46 0
-73 -46 0
122 50 0
-122 -50 0
58 65 0
-58 -65 0
118 18 0
-118 -18 0
74 86 0
-74 -86 0
123 53 0
-123 -53 0
93 98 0
-93 -98 0
89 41 0
-89 -41 0
38 7 0
-38 -7 0
24 61 0
-24 -61 0
35 76 0
-35 -76 0
106 33 0
-106 -33 0
36 54 0
-36 -54 0
26 32 0
-26 -32 0
18 29 0
-18 -29 0
104 95 0
-104 -95 0
128 90 0
-128 -90 0
137 134 0
-137 -134 0
31 37 0
-31 -37 0
140 50 0
-140 -50 0
49 71 0
-49 -71 0
87 133 0
-87 -133 0
11 31 0
-11 -31 0
125 29 0
-125 -29 0
113 84 0
-113 -84 0
37 29 0
-37 -29 0
102 68 0
-102 -68 0
112 75 0
-112 -75 0
79 81 0
-79 -81 0
133 95 0
-133 -95 0
25 92 0
-25 -92 0
138 123 0
-138 -123 0
138 1 0
-138 -1 0
8 131 0
-8 -131 0
2 32 0
-2 -32 0
123 48 0
-123 -48 0
16 37 0
-16 -37 0
129 21 0
-129 -21 0
106 77 0
-106 -77 0
73 58 0
-73 -58 0
102 130 0
-102 -130 0
27 122 0
-27 -122 0
82 49 0
-82 -49 0
30 136 0
-30 -136 0
122 41 0
-122 -41 0
78 96 0
-78 -96 0
121 127 0
-121 -127 0
34 16 0
-34 -16 0
47 96 0
-47 -96 0
107 104 0
-107 -104 0
39 115 0
-39 -115 0
28 135 0
-28 -135 0
94 123 0
-94 -123 0
119 95 0
-119 -95 0
139 113 0
-139 -113 0
55 137 0
-55 -137 0
3 135 0
-3 -135 0
93 83 0
-93 -83 0
55 46 0
-55 -46 0
46 65 0
-46 -65 0
48 80 0
-48 -80 0
104 24 0
-104 -24 0
51 75 0
-51 -75 0
102 111 0
-102 -111 0
130 106 0
-130 -106 0
107 87 0
-107 -87 0
109 90 0
-109 -90 0
36 58 0
-36 -58 0
88 7 0
-88 -7 0
129 49 0
-129 -49 0
26 97 0
-26 -97 0
28 86 0
-28 -86 0
122 49 0
-122 -49 0
99 20 0
-99 -20 0
99 52 0
-99 -52 0
69 75 0
-69 -75 0
48 58 0
-48 -58 0
94 91 0
-94 -91 0
119 9 0
-119 -9 0
21 127 0
-21 -127 0
116 61 0
-116 -61 0
28 93 0
-28 -93 0
101 35 0
-101 -35 0
98 19 0
-98 -19 0
94 8 0
-94 -8 0
20 3 0
-20 -3 0
121 91 0
-121 -91 0
68 1 0
-68 -1 0
74 80 0
-74 -80 0
104 103 0
-104 -103 0
121 85 0
-121 -85 0
140 33 0
-140 -33 0
11 64 0
-11 -64 0
94 4 0
-94 -4 0
41 127 0
-41 -127 0
86 67 0
-86 -67 0
109 75 0
-109 -75 0
138 2 0
-138 -2 0
86 42 0
-86 -42 0
137 2 0
-137 -2 0
84 50 0
-84 -50 0
59 115 0
-59 -115 0
118 21 0
-118 -21 0
107 15 0
-107 -15 0
132 3 0
-132 -3 0
5 67 0
-5 -67 0
95 29 0
-95 -29 0
137 37 0
-137 -37 0
69 8 0
-69 -8 0
130 133 0
-130 -133 0
40 110 0
-40 -110 0
118 9 0
-118 -9 0
23 106 0
-23 -106 0
116 140 0
-116 -140 0
24 90 0
-24 -90 0
42 1 0
-42 -1 0
12 118 0
-12 -118 0
132 84 0
-132 -84 0
94 17 0
-94 -17 0
11 3 0
-11 -3 0
48 3 0
-48 -3 0
89 81 0
-89 -81 0
28 9 0
-28 -9 0
13 135 0
-13 -135 0
91 45 0
-91 -45 0
59 25 0
-59 -25 0
35 74 0
-35 -74 0
51 14 0
-51 -14 0
111 26 0
-111 -26 0
107 79 0
-107 -79 0
27 85 0
-27 -85 0
70 98 0
-70 -98 0
89 96 0
-89 -96 0
33 120 0
-33 -120 0
74 131 0
-74 -131 0
20 22 0
-20 -22 0
74 14 0
-74 -14 0
99 29 0
-99 -29 0
15 118 0
-15 -118 0
28 1 0
-28 -1 0
58 80 0
-58 -80 0
27 126 0
-27 -126 0
32 7 0
-32 -7 0
46 96 0
-46 -96 0
121 44 0
-121 -44 0
136 3 0
-136 -3 0
93 63 0
-93 -63 0
122 1 0
-122 -1 0
137 95 0
-137 -95 0
101 76 0
-101 -76 0
97 81 0
-97 -81 0
106 68 0
-106 -68 0
102 19 0
-102 -19 0
64 45 0
-64 -45 0
119 131 0
-119 -131 0
82 100 0
-82 -100 0
103 7 0
-103 -7 0
35 2 0
-35 -2 0
16 135 0
-16 -135 0
137 71 0
-137 -71 0
94 21 0
-94 -21 0
62 52 0
-62 -52 0
55 19 0
-55 -19 0
59 47 0
-59 -47 0
65 89 0
-65 -89 0
112 111 0
-112 -111 0
46 14 0
-46 -14 0
94 15 0
-94 -15 0
25 120 0
-25 -120 0
70 42 0
-70 -42 0
119 89 0
-119 -89 0
53 67 0
-53 -67 0
31 128 0
-31 -128 0
69 98 0
-69 -98 0
28 63 0
-28 -63 0
11 108 0
-11 -108 0
1 97 0
-1 -97 0
72 65 0
-72 -65 0
17 125 0
-17 -125 0
61 120 0
-61 -120 0
121 96 0
-121 -96 0
130 96 0
-130 -96 0
31 86 0
-31 -86 0
74 128 0
-74 -128 0
93 22 0
-93 -22 0
102 106 0
-102 -106 0
104 120 0
-104 -120 0
31 80 0
-31 -80 0
5 71 0
-5 -71 0
31 44 0
-31 -44 0
138 13 0
-138 -13 0
121 53 0
-121 -53 0
135 92 0
-135 -92 0
79 50 0
-79 -50 0
27 137 0
-27 -137 0
123 96 0
-123 -96 0
45 81 0
-45 -81 0
112 127 0
-112 -127 0
132 26 0
-132 -26 0
70 64 0
-70 -64 0
79 127 0
-79 -127 0
66 16 0
-66 -16 0
31 24 0
-31 -24 0
13 100 0
-13 -100 0
22 124 0
-22 -124 0
129 37 0
-129 -37 0
47 1 0
-47 -1 0
138 128 0
-138 -128 0
138 68 0
-138 -68 0
60 121 0
-60 -121 0
27 82 0
-27 -82 0
72 92 0
-72 -92 0
14 100 0
-14 -100 0
98 90 0
-98 -90 0
28 111 0
-28 -111 0
94 135 0
-94 -135 0
24 86 0
-24 -86 0
64 32 0
-64 -32 0
45 65 0
-45 -65 0
79 131 0
-79 -131 0
39 10 0
-39 -10 0
54 26 0
-54 -26 0
135 41 0
-135 -41 0
60 123 0
-60 -123 0
105 30 0
-105 -30 0
122 96 0
-122 -96 0
23 96 0
-23 -96 0
23 63 0
-23 -63 0
58 136 0
-58 -136 0
129 64 0
-129 -64 0
99 33 0
-99 -33 0
74 135 0
-74 -135 0
38 122 0
-38 -122 0
112 20 0
-112 -20 0
11 137 0
-11 -137 0
8 41 0
-8 -41 0
64 84 0
-64 -84 0
139 2 0
-139 -2 0
112 36 0
-112 -36 0
139 27 0
-139 -27 0
89 5 0
-89 -5 0
19 136 0
-19 -136 0
125 103 0
-125 -103 0
40 33 0
-40 -33 0
70 2 0
-70 -2 0
4 96 0
-4 -96 0
72 98 0
-72 -98 0
24 85 0
-24 -85 0
87 85 0
-87 -85 0
52 92 0
-52 -92 0
12 46 0
-12 -46 0
68 125 0
-68 -125 0
105 129 0
-105 -129 0
20 135 0
-20 -135 0
93 53 0
-93 -53 0
138 48 0
-138 -48 0
123 82 0
-123 -82 0
17 50 0
-17 -50 0
137 78 0
-137 -78 0
139 71 0
-139 -71 0
82 64 0
-82 -64 0
28 117 0
-28 -117 0
43 52 0
-43 -52 0
28 87 0
-28 -87 0
115 80 0
-115 -80 0
93 78 0
-93 -78 0
58 5 0
-58 -5 0
139 6 0
-139 -6 0
12 61 0
-12 -61 0
47 41 0
-47 -41 0
68 64 0
-68 -64 0
51 20 0
-51 -20 0
40 54 0
-40 -54 0
102 79 0
-102 -79 0
17 2 0
-17 -2 0
10 13 0
-10 -13 0
139 88 0
-139 -88 0
64 103 0
-64 -103 0
85 81 0
-85 -81 0
76 5 0
-76 -5 0
78 5 0
-78 -5 0
61 103 0
-61 -103 0
132 1 0
-132 -1 0
47 140 0
-47 -140 0
130 42 0
-130 -42 0
66 26 0
-66 -26 0
86 18 0
-86 -18 0
121 22 0
-121 -22 0
22 18 0
-22 -18 0
51 97 0
-51 -97 0
112 114 0
-112 -114 0
58 124 0
-58 -124 0
112 129 0
-112 -129 0
46 84 0
-46 -84 0
56 32 0
-56 -32 0
32 92 0
-32 -92 0
53 96 0
-53 -96 0
49 4 0
-49 -4 0
115 124 0
-115 -124 0
83 71 0
-83 -71 0
119 45 0
-119 -45 0
91 95 0
-91 -95 0
81 135 0
-81 -135 0
69 73 0
-69 -73 0
70 40 0
-70 -40 0
21 29 0
-21 -29 0
30 65 0
-30 -65 0
68 128 0
-68 -128 0
34 128 0
-34 -128 0
88 77 0
-88 -77 0
43 2 0
-43 -2 0
60 88 0
-60 -88 0
139 90 0
-139 -90 0
44 90 0
-44 -90 0
9 96 0
-9 -96 0
88 140 0
-88 -140 0
94 106 0
-94 -106 0
89 103 0
-89 -103 0
69 46 0
-69 -46 0
23 8 0
-23 -8 0
136 80 0
-136 -80 0
112 109 0
-112 -109 0
68 49 0
-68 -49 0
77 127 0
-77 -127 0
19 77 0
-19 -77 0
33 13 0
-33 -13 0
43 24 0
-43 -24 0
87 136 0
-87 -136 0
94 88 0
-94 -88 0
16 5 0
-16 -5 0
118 2 0
-118 -2 0
13 67 0
-13 -67 0
85 124 0
-85 -124 0
33 81 0
-33 -81 0
128 91 0
-128 -91 0
70 51 0
-70 -51 0
2 3 0
-2 -3 0
42 71 0
-42 -71 0
107 57 0
-107 -57 0
24 68 0
-24 -68 0
131 13 0
-131 -13 0
80 77 0
-80 -77 0
107 115 0
-107 -115 0
138 35 0
-138 -35 0
20 53 0
-20 -53 0
56 8 0
-56 -8 0
104 64 0
-104 -64 0
9 29 0
-9 -29 0
125 32 0
-125 -32 0
35 45 0
-35 -45 0
88 110 0
-88 -110 0
99 13 0
-99 -13 0
113 67 0
-113 -67 0
31 57 0
-31 -57 0
20 19 0
-20 -19 0
123 135 0
-123 -135 0
134 71 0
-134 -71 0
57 80 0
-57 -80 0
99 120 0
-99 -120 0
114 90 0
-114 -90 0
43 114 0
-43 -114 0
28 118 0
-28 -118 0
52 29 0
-52 -29 0
59 15 0
-59 -15 0
132 90 0
-132 -90 0
35 95 0
-35 -95 0
79 8 0
-79 -8 0
130 97 0
-130 -97 0
129 103 0
-129 -103 0
109 68 0
-109 -68 0
80 71 0
-80 -71 0
118 37 0
-118 -37 0
67 71 0
-67 -71 0
22 41 0
-22 -41 0
99 23 0
-99 -23 0
3 97 0
-3 -97 0
28 46 0
-28 -46 0
66 102 0
-66 -102 0
44 133 0
-44 -133 0
59 2 0
-59 -2 0
107 81 0
-107 -81 0
140 127 0
-140 -127 0
109 78 0
-109 -78 0
50 32 0
-50 -32 0
69 57 0
-69 -57 0
72 14 0
-72 -14 0
98 115 0
-98 -115 0
28 10 0
-28 -10 0
139 64 0
-139 -64 0
48 37 0
-48 -37 0
121 61 0
-121 -61 0
47 118 0
-47 -118 0
88 63 0
-88 -63 0
79 118 0
-79 -118 0
62 23 0
-62 -23 0
32 67 0
-32 -67 0
26 29 0
-26 -29 0
122 22 0
-122 -22 0
53 124 0
-53 -124 0
87 6 0
-87 -6 0
19 86 0
-19 -86 0
100 96 0
-100 -96 0
28 71 0
-28 -71 0
109 133 0
-109 -133 0
117 23 0
-117 -23 0
113 47 0
-113 -47 0
87 49 0
-87 -49 0
116 109 0
-116 -109 0
28 24 0
-28 -24 0
39 53 0
-39 -53 0
116 86 0
-116 -86 0
53 135 0
-53 -135 0
49 8 0
-49 -8 0
87 118 0
-87 -118 0
27 13 0
-27 -13 0
89 29 0
-89 -29 0
73 20 0
-73 -20 0
129 131 0
-129 -131 0
105 110 0
-105 -110 0
51 24 0
-51 -24 0
27 14 0
-27 -14 0
108 28 0
-108 -28 0
47 126 0
-47 -126 0
14 125 0
-14 -125 0
